c CNF file corresponding to a (partial) station packing problem.
p cnf 3363 198
1 2 3 4 5 6 7 8 9 10 11 12 13 14 0
-1 -2 0
-1 -3 0
-1 -4 0
-1 -5 0
-1 -6 0
-1 -7 0
-1 -8 0
-1 -9 0
-1 -10 0
-1 -11 0
-1 -12 0
-1 -13 0
-1 -14 0
-2 -3 0
-2 -4 0
-2 -5 0
-2 -6 0
-2 -7 0
-2 -8 0
-2 -9 0
-2 -10 0
-2 -11 0
-2 -12 0
-2 -13 0
-2 -14 0
-3 -4 0
-3 -5 0
-3 -6 0
-3 -7 0
-3 -8 0
-3 -9 0
-3 -10 0
-3 -11 0
-3 -12 0
-3 -13 0
-3 -14 0
-4 -5 0
-4 -6 0
-4 -7 0
-4 -8 0
-4 -9 0
-4 -10 0
-4 -11 0
-4 -12 0
-4 -13 0
-4 -14 0
-5 -6 0
-5 -7 0
-5 -8 0
-5 -9 0
-5 -10 0
-5 -11 0
-5 -12 0
-5 -13 0
-5 -14 0
-6 -7 0
-6 -8 0
-6 -9 0
-6 -10 0
-6 -11 0
-6 -12 0
-6 -13 0
-6 -14 0
-7 -8 0
-7 -9 0
-7 -10 0
-7 -11 0
-7 -12 0
-7 -13 0
-7 -14 0
-8 -9 0
-8 -10 0
-8 -11 0
-8 -12 0
-8 -13 0
-8 -14 0
-9 -10 0
-9 -11 0
-9 -12 0
-9 -13 0
-9 -14 0
-10 -11 0
-10 -12 0
-10 -13 0
-10 -14 0
-11 -12 0
-11 -13 0
-11 -14 0
-12 -13 0
-12 -14 0
-13 -14 0
3349 3350 3351 3352 3353 3354 3355 3356 3357 3358 3359 3360 3361 3362 3363 0
-3349 -3350 0
-3349 -3351 0
-3349 -3352 0
-3349 -3353 0
-3349 -3354 0
-3349 -3355 0
-3349 -3356 0
-3349 -3357 0
-3349 -3358 0
-3349 -3359 0
-3349 -3360 0
-3349 -3361 0
-3349 -3362 0
-3349 -3363 0
-3350 -3351 0
-3350 -3352 0
-3350 -3353 0
-3350 -3354 0
-3350 -3355 0
-3350 -3356 0
-3350 -3357 0
-3350 -3358 0
-3350 -3359 0
-3350 -3360 0
-3350 -3361 0
-3350 -3362 0
-3350 -3363 0
-3351 -3352 0
-3351 -3353 0
-3351 -3354 0
-3351 -3355 0
-3351 -3356 0
-3351 -3357 0
-3351 -3358 0
-3351 -3359 0
-3351 -3360 0
-3351 -3361 0
-3351 -3362 0
-3351 -3363 0
-3352 -3353 0
-3352 -3354 0
-3352 -3355 0
-3352 -3356 0
-3352 -3357 0
-3352 -3358 0
-3352 -3359 0
-3352 -3360 0
-3352 -3361 0
-3352 -3362 0
-3352 -3363 0
-3353 -3354 0
-3353 -3355 0
-3353 -3356 0
-3353 -3357 0
-3353 -3358 0
-3353 -3359 0
-3353 -3360 0
-3353 -3361 0
-3353 -3362 0
-3353 -3363 0
-3354 -3355 0
-3354 -3356 0
-3354 -3357 0
-3354 -3358 0
-3354 -3359 0
-3354 -3360 0
-3354 -3361 0
-3354 -3362 0
-3354 -3363 0
-3355 -3356 0
-3355 -3357 0
-3355 -3358 0
-3355 -3359 0
-3355 -3360 0
-3355 -3361 0
-3355 -3362 0
-3355 -3363 0
-3356 -3357 0
-3356 -3358 0
-3356 -3359 0
-3356 -3360 0
-3356 -3361 0
-3356 -3362 0
-3356 -3363 0
-3357 -3358 0
-3357 -3359 0
-3357 -3360 0
-3357 -3361 0
-3357 -3362 0
-3357 -3363 0
-3358 -3359 0
-3358 -3360 0
-3358 -3361 0
-3358 -3362 0
-3358 -3363 0
-3359 -3360 0
-3359 -3361 0
-3359 -3362 0
-3359 -3363 0
-3360 -3361 0
-3360 -3362 0
-3360 -3363 0
-3361 -3362 0
-3361 -3363 0
-3362 -3363 0
